1338.32 0
0 194 158 192 184 43 199 136 197 1 191 196 66 0
0 195 53 198 190 41 90 115 160 23 183 104 67 188 0
0 61 112 86 186 93 22 91 142 114 156 64 2 152 0
0 98 153 79 15 154 124 20 166 122 174 171 172 0
0 39 57 189 31 162 75 25 56 118 72 106 44 55 3 0
0 157 101 28 94 140 121 82 173 21 120 30 54 0
0 127 175 46 167 99 179 27 58 111 87 4 0
0 96 116 62 185 89 137 143 68 42 113 141 193 0
0 95 76 187 110 163 148 92 135 145 73 146 18 147 181 0
0 149 51 7 132 180 69 14 133 177 35 60 0
0 126 100 71 52 11 170 164 85 134 84 108 150 26 0
0 81 168 50 169 129 119 38 165 77 10 80 131 12 0
0 6 33 105 16 159 182 49 74 144 24 107 63 117 0
0 139 48 47 155 36 138 37 88 103 5 59 29 125 0
0 17 40 130 109 9 161 97 32 151 0
0 45 83 13 123 128 70 19 78 178 8 102 176 65 34 0
